SumColouring/MiniZinc model/Experiments/12_0.10_1.col.dzn
% Data file generated from RandomInstances/12_0.10_1.col DIMACS file
size = 12;

chi = 2;

adjacency = [|0,0,0,0,0,0,0,0,0,0,0,0,
|0,0,0,0,0,0,0,0,0,0,0,0,
|0,0,0,0,0,0,0,0,0,0,0,0,
|0,0,0,0,0,0,0,1,0,0,1,0,
|0,0,0,0,0,0,1,0,1,0,0,0,
|0,0,0,0,0,0,0,0,0,0,0,0,
|0,0,0,0,1,0,0,0,0,0,0,0,
|0,0,0,1,0,0,0,0,0,0,0,0,
|0,0,0,0,1,0,0,0,0,0,0,0,
|0,0,0,0,0,0,0,0,0,0,0,0,
|0,0,0,1,0,0,0,0,0,0,0,0,
|0,0,0,0,0,0,0,0,0,0,0,0,
|];